results/res_prop_muc/res_Cimatti_mathsat_cores/QF_LIA/MULTIPLIER_9.msat.smt.smt2.out
### boolMucExtractionTime 581676881
