results/res_prop_muc/res_Cimatti_mathsat_cores/QF_LIA/MULTIPLIER_9.msat.smt.smt2.res
unsat
( c0
  c10
  c100
  c101
  c102
  c103
  c104
  c105
  c106
  c107
  c108
  c109
  c11
  c110
  c111
  c112
  c113
  c114
  c115
  c116
  c117
  c118
  c119
  c12
  c120
  c121
  c122
  c123
  c124
  c126
  c127
  c128
  c13
  c130
  c131
  c132
  c133
  c134
  c135
  c136
  c137
  c138
  c139
  c14
  c140
  c142
  c143
  c144
  c145
  c146
  c147
  c148
  c149
  c15
  c150
  c151
  c152
  c154
  c155
  c158
  c159
  c16
  c161
  c162
  c17
  c18
  c19
  c2
  c20
  c21
  c22
  c23
  c24
  c25
  c26
  c27
  c28
  c29
  c3
  c30
  c31
  c32
  c33
  c34
  c35
  c36
  c37
  c38
  c39
  c4
  c40
  c42
  c43
  c44
  c45
  c47
  c48
  c49
  c5
  c51
  c52
  c53
  c55
  c56
  c57
  c59
  c6
  c60
  c61
  c63
  c64
  c65
  c66
  c67
  c68
  c69
  c7
  c71
  c72
  c73
  c75
  c76
  c79
  c8
  c82
  c83
  c84
  c85
  c86
  c87
  c88
  c89
  c9
  c90
  c91
  c92
  c93
  c94
  c95
  c96
  c97
  c98
  c99 )
